30      4       
21      13      16      19      
0       0       0       0       0       19      2       3       4       6       7       8       9       10      11      12      13      14      22      24      25      26      27      28      29      
 
1       2       5       1       1       2       5       23      
9       13      5       11      15      2       15      17      
5       17      8       7       13      1       17      
5       8       1       1       1       1       16      
7       9       1       9       11      1       18      
2       1       2       10      4       1       15      
2       17      8       7       13      1       15      
6       2       1       1       1       1       15      
7       6       7       9       5       1       15      
6       5       6       5       14      1       21      
2       5       6       8       4       1       20      
3       1       1       6       1       1       19      
1       17      2       9       16      1       16      
7       3       1       7       7       1       30      
10      7       4       1       3       1       30      
2       13      4       1       3       1       30      
10      1       5       1       1       1       30      
3       7       8       8       11      1       30      
5       2       2       6       1       1       30      
8       1       1       2       1       1       30      
8       6       4       7       4       1       30      
5       12      2       11      7       1       30      
6       1       4       12      5       1       30      
8       10      10      1       5       1       30      
5       1       4       2       1       1       30      
10      5       1       1       5       1       30      
2       7       1       1       6       1       30      
2       1       5       4       6       1       30      
0       0       0       0       0       0       
